(set-logic QF_LIA)
(declare-fun x0 () Int)
(declare-fun x1 () Int)
(declare-fun x2 () Int)
(declare-fun x3 () Int)
(declare-fun x4 () Int)
(declare-fun x5 () Int)
(declare-fun x6 () Int)
(declare-fun x7 () Int)
(declare-fun x8 () Int)
(declare-fun x9 () Int)
(declare-fun A0 () Bool)
(declare-fun A1 () Bool)
(declare-fun A2 () Bool)
(declare-fun A3 () Bool)
(declare-fun A4 () Bool)
(declare-fun A5 () Bool)
(declare-fun A6 () Bool)
(declare-fun A7 () Bool)
(declare-fun A8 () Bool)
(declare-fun A9 () Bool)
(assert (let ((.def_0 (not A0))) (let ((.def_1 (or .def_0 A3))) (let ((.def_2 (not A9))) (let ((.def_3 (= A7 .def_2))) (let ((.def_4 (not .def_3))) (let ((.def_5 (or .def_4 .def_1))) (let ((.def_6 (and A9 A2))) (let ((.def_7 (not .def_6))) (let ((.def_8 (not A4))) (let ((.def_9 (or .def_0 .def_8))) (let ((.def_10 (or .def_9 .def_7))) (let ((.def_11 (not .def_10))) (let ((.def_12 (or .def_11 .def_5))) (let ((.def_13 (* (- 1) x4))) (let ((.def_14 (< .def_13 1))) (let ((.def_15 (= A2 .def_14))) (let ((.def_16 (not A2))) (let ((.def_17 (or .def_16 .def_0))) (let ((.def_18 (not .def_17))) (let ((.def_19 (and .def_18 .def_15))) (let ((.def_20 (not .def_19))) (let ((.def_21 (* 1 x4))) (let ((.def_22 (< .def_21 (- 1)))) (let ((.def_23 (* (- 1) x8))) (let ((.def_24 (* (- 1) x1))) (let ((.def_25 (+ .def_24 .def_23))) (let ((.def_26 (< .def_25 1))) (let ((.def_27 (and .def_26 .def_22))) (let ((.def_28 (not .def_27))) (let ((.def_29 (not A6))) (let ((.def_30 (or A6 .def_29))) (let ((.def_31 (not .def_30))) (let ((.def_32 (or .def_31 .def_28))) (let ((.def_33 (and .def_32 .def_20))) (let ((.def_34 (and .def_33 .def_12))) (let ((.def_35 (* 1 x7))) (let ((.def_36 (* (- 1) x9))) (let ((.def_37 (+ .def_36 .def_35))) (let ((.def_38 (< .def_37 (- 1)))) (let ((.def_39 (and .def_2 .def_38))) (let ((.def_40 (not .def_39))) (let ((.def_41 (< .def_13 (- 1)))) (let ((.def_42 (or .def_29 .def_41))) (let ((.def_43 (not .def_42))) (let ((.def_44 (and .def_43 .def_40))) (let ((.def_45 (* 1 x6))) (let ((.def_46 (< .def_45 (- 1)))) (let ((.def_47 (= A8 .def_46))) (let ((.def_48 (* 1 x0))) (let ((.def_49 (< .def_48 1))) (let ((.def_50 (not .def_49))) (let ((.def_51 (not A7))) (let ((.def_52 (= .def_51 .def_50))) (let ((.def_53 (not .def_52))) (let ((.def_54 (or .def_53 .def_47))) (let ((.def_55 (or .def_54 .def_44))) (let ((.def_56 (not .def_55))) (let ((.def_57 (* (- 1) x5))) (let ((.def_58 (+ .def_24 .def_57))) (let ((.def_59 (< .def_58 (- 1)))) (let ((.def_60 (and .def_59 .def_2))) (let ((.def_61 (* 1 x2))) (let ((.def_62 (+ .def_61 .def_45))) (let ((.def_63 (< .def_62 (- 1)))) (let ((.def_64 (* 1 x9))) (let ((.def_65 (+ .def_64 .def_24))) (let ((.def_66 (< .def_65 (- 1)))) (let ((.def_67 (or .def_66 .def_63))) (let ((.def_68 (not .def_67))) (let ((.def_69 (and .def_68 .def_60))) (let ((.def_70 (not .def_69))) (let ((.def_71 (* 1 x1))) (let ((.def_72 (< .def_71 1))) (let ((.def_73 (not .def_72))) (let ((.def_74 (or .def_73 A3))) (let ((.def_75 (not .def_74))) (let ((.def_76 (* (- 1) x0))) (let ((.def_77 (* (- 1) x3))) (let ((.def_78 (+ .def_77 .def_76))) (let ((.def_79 (< .def_78 1))) (let ((.def_80 (not .def_79))) (let ((.def_81 (or .def_2 .def_80))) (let ((.def_82 (= .def_81 .def_75))) (let ((.def_83 (and .def_82 .def_70))) (let ((.def_84 (not .def_83))) (let ((.def_85 (or .def_84 .def_56))) (let ((.def_86 (or .def_85 .def_34))) (let ((.def_87 (not .def_86))) (let ((.def_88 (< .def_35 (- 1)))) (let ((.def_89 (< .def_23 1))) (let ((.def_90 (or .def_89 .def_88))) (let ((.def_91 (not .def_90))) (let ((.def_92 (and A7 A9))) (let ((.def_93 (or .def_92 .def_91))) (let ((.def_94 (not .def_93))) (let ((.def_95 (not A5))) (let ((.def_96 (and A7 .def_95))) (let ((.def_97 (not .def_96))) (let ((.def_98 (* (- 1) x2))) (let ((.def_99 (* 1 x5))) (let ((.def_100 (+ .def_99 .def_98))) (let ((.def_101 (< .def_100 (- 1)))) (let ((.def_102 (and A1 .def_101))) (let ((.def_103 (and .def_102 .def_97))) (let ((.def_104 (not .def_103))) (let ((.def_105 (or .def_104 .def_94))) (let ((.def_106 (not A3))) (let ((.def_107 (and .def_2 .def_106))) (let ((.def_108 (< .def_45 1))) (let ((.def_109 (not A1))) (let ((.def_110 (or .def_109 .def_108))) (let ((.def_111 (not .def_110))) (let ((.def_112 (and .def_111 .def_107))) (let ((.def_113 (not A8))) (let ((.def_114 (or A1 .def_113))) (let ((.def_115 (not .def_114))) (let ((.def_116 (+ .def_48 .def_35))) (let ((.def_117 (< .def_116 (- 1)))) (let ((.def_118 (not .def_117))) (let ((.def_119 (not .def_46))) (let ((.def_120 (= .def_119 .def_118))) (let ((.def_121 (or .def_120 .def_115))) (let ((.def_122 (and .def_121 .def_112))) (let ((.def_123 (not .def_122))) (let ((.def_124 (or .def_123 .def_105))) (let ((.def_125 (not .def_124))) (let ((.def_126 (or A4 A9))) (let ((.def_127 (* 1 x3))) (let ((.def_128 (< .def_127 1))) (let ((.def_129 (not .def_128))) (let ((.def_130 (and .def_129 .def_106))) (let ((.def_131 (and .def_130 .def_126))) (let ((.def_132 (not .def_131))) (let ((.def_133 (and .def_29 .def_95))) (let ((.def_134 (not .def_133))) (let ((.def_135 (and .def_113 A3))) (let ((.def_136 (or .def_135 .def_134))) (let ((.def_137 (or .def_136 .def_132))) (let ((.def_138 (not .def_137))) (let ((.def_139 (+ .def_21 .def_71))) (let ((.def_140 (< .def_139 (- 1)))) (let ((.def_141 (or .def_140 .def_0))) (let ((.def_142 (not .def_141))) (let ((.def_143 (and .def_2 .def_2))) (let ((.def_144 (not .def_143))) (let ((.def_145 (= .def_144 .def_142))) (let ((.def_146 (not .def_145))) (let ((.def_147 (* 1 x8))) (let ((.def_148 (< .def_147 1))) (let ((.def_149 (or .def_0 .def_148))) (let ((.def_150 (not .def_149))) (let ((.def_151 (+ .def_48 .def_24))) (let ((.def_152 (< .def_151 1))) (let ((.def_153 (and .def_152 .def_16))) (let ((.def_154 (= .def_153 .def_150))) (let ((.def_155 (or .def_154 .def_146))) (let ((.def_156 (not .def_155))) (let ((.def_157 (= .def_156 .def_138))) (let ((.def_158 (not .def_157))) (let ((.def_159 (and .def_158 .def_125))) (let ((.def_160 (not .def_159))) (let ((.def_161 (and .def_160 .def_87))) (let ((.def_162 (not .def_161))) (let ((.def_163 (<= x9 1))) (let ((.def_164 (<= 0 x9))) (let ((.def_165 (<= x8 1))) (let ((.def_166 (<= 0 x8))) (let ((.def_167 (<= x7 1))) (let ((.def_168 (<= 0 x7))) (let ((.def_169 (<= x6 1))) (let ((.def_170 (<= 0 x6))) (let ((.def_171 (<= x5 1))) (let ((.def_172 (<= 0 x5))) (let ((.def_173 (<= x4 1))) (let ((.def_174 (<= 0 x4))) (let ((.def_175 (<= x3 1))) (let ((.def_176 (<= 0 x3))) (let ((.def_177 (<= x2 1))) (let ((.def_178 (<= 0 x2))) (let ((.def_179 (<= x1 1))) (let ((.def_180 (<= 0 x1))) (let ((.def_181 (<= x0 1))) (let ((.def_182 (<= 0 x0))) (let ((.def_183 (and .def_182 .def_181 .def_180 .def_179 .def_178 .def_177 .def_176 .def_175 .def_174 .def_173 .def_172 .def_171 .def_170 .def_169 .def_168 .def_167 .def_166 .def_165 .def_164 .def_163 .def_162))) .def_183)))))))))))))))))))))))))))))))))))))))))))))))))))))))))))))))))))))))))))))))))))))))))))))))))))))))))))))))))))))))))))))))))))))))))))))))))))))))))))))))))))))))))))))))))))))))))
(check-sat)
